<?xml version="1.0" encoding="UTF-8"?><osil xmlns="os.optimizationservices.org"   xmlns:xsi="http://www.w3.org/2001/XMLSchema-instance" xsi:schemaLocation="os.optimizationservices.org http://www.optimizationservices.org/schemas/2.0/OSiL.xsd" ><instanceHeader><name>q_30_0_25_1</name></instanceHeader><instanceData><variables numberOfVariables="30"><var name="x1" ub="1"/><var name="x2" ub="1"/><var name="x3" ub="1"/><var name="x4" ub="1"/><var name="x5" ub="1"/><var name="x6" ub="1"/><var name="x7" ub="1"/><var name="x8" ub="1"/><var name="x9" ub="1"/><var name="x10" ub="1"/><var name="x11" ub="1"/><var name="x12" ub="1"/><var name="x13" ub="1"/><var name="x14" ub="1"/><var name="x15" ub="1"/><var name="x16" ub="1"/><var name="x17" ub="1"/><var name="x18" ub="1"/><var name="x19" ub="1"/><var name="x20" ub="1"/><var name="x21" ub="1"/><var name="x22" ub="1"/><var name="x23" ub="1"/><var name="x24" ub="1"/><var name="x25" ub="1"/><var name="x26" ub="1"/><var name="x27" ub="1"/><var name="x28" ub="1"/><var name="x29" ub="1"/><var name="x30" ub="1"/></variables><objectives numberOfObjectives="1"><obj maxOrMin="min" name="defObj_x31" numberOfObjCoef="30"><coef idx="0">-.6207</coef><coef idx="1">-.5978</coef><coef idx="2">-.5025</coef><coef idx="3">.9402</coef><coef idx="4">.5528</coef><coef idx="5">-.4546</coef><coef idx="6">-6.1e-3</coef><coef idx="7">-.2025</coef><coef idx="8">.2266</coef><coef idx="9">-.8295</coef><coef idx="10">.474</coef><coef idx="11">.7257</coef><coef idx="12">-.3179</coef><coef idx="13">.3889</coef><coef idx="14">.2838</coef><coef idx="15">-.829</coef><coef idx="16">.416</coef><coef idx="17">.1849</coef><coef idx="18">-.5344</coef><coef idx="19">-.8496</coef><coef idx="20">-.3513</coef><coef idx="21">.8262</coef><coef idx="22">-.5914</coef><coef idx="23">-9.45e-2</coef><coef idx="24">.4543</coef><coef idx="25">-.9433</coef><coef idx="26">3.41e-2</coef><coef idx="27">.5353</coef><coef idx="28">.7887</coef><coef idx="29">.889</coef></obj></objectives><quadraticCoefficients  numberOfQuadraticTerms="116" ><qTerm  idx="-1"  idxOne="0"  idxTwo="2"  coef="-.6117"/><qTerm  idx="-1"  idxOne="0"  idxTwo="4"  coef="-1.8129"/><qTerm  idx="-1"  idxOne="0"  idxTwo="19"  coef=".6034"/><qTerm  idx="-1"  idxOne="1"  idxTwo="3"  coef="1.1174"/><qTerm  idx="-1"  idxOne="1"  idxTwo="4"  coef="-1.5804"/><qTerm  idx="-1"  idxOne="1"  idxTwo="6"  coef="-.7506"/><qTerm  idx="-1"  idxOne="1"  idxTwo="16"  coef="-.3188"/><qTerm  idx="-1"  idxOne="1"  idxTwo="17"  coef="-1.5432"/><qTerm  idx="-1"  idxOne="1"  idxTwo="20"  coef=".1008"/><qTerm  idx="-1"  idxOne="1"  idxTwo="25"  coef="-1.7315"/><qTerm  idx="-1"  idxOne="2"  idxTwo="8"  coef="-1.595"/><qTerm  idx="-1"  idxOne="2"  idxTwo="14"  coef="-1.3125"/><qTerm  idx="-1"  idxOne="2"  idxTwo="16"  coef="-7.85e-2"/><qTerm  idx="-1"  idxOne="2"  idxTwo="28"  coef=".9127"/><qTerm  idx="-1"  idxOne="2"  idxTwo="29"  coef="-.9965"/><qTerm  idx="-1"  idxOne="3"  idxTwo="6"  coef="-1.7066"/><qTerm  idx="-1"  idxOne="3"  idxTwo="10"  coef="1.0218"/><qTerm  idx="-1"  idxOne="3"  idxTwo="11"  coef="1.0148"/><qTerm  idx="-1"  idxOne="3"  idxTwo="21"  coef="1.007"/><qTerm  idx="-1"  idxOne="3"  idxTwo="27"  coef="1.4667"/><qTerm  idx="-1"  idxOne="3"  idxTwo="28"  coef="-.7261"/><qTerm  idx="-1"  idxOne="4"  idxTwo="11"  coef="-.714"/><qTerm  idx="-1"  idxOne="4"  idxTwo="12"  coef="-1.5237"/><qTerm  idx="-1"  idxOne="4"  idxTwo="17"  coef=".3496"/><qTerm  idx="-1"  idxOne="4"  idxTwo="19"  coef=".4493"/><qTerm  idx="-1"  idxOne="4"  idxTwo="20"  coef="1.0785"/><qTerm  idx="-1"  idxOne="4"  idxTwo="21"  coef="-.6658"/><qTerm  idx="-1"  idxOne="4"  idxTwo="23"  coef=".1675"/><qTerm  idx="-1"  idxOne="4"  idxTwo="26"  coef="-.2616"/><qTerm  idx="-1"  idxOne="4"  idxTwo="28"  coef="-.4672"/><qTerm  idx="-1"  idxOne="5"  idxTwo="8"  coef="-.6763"/><qTerm  idx="-1"  idxOne="5"  idxTwo="11"  coef="-1.2991"/><qTerm  idx="-1"  idxOne="5"  idxTwo="16"  coef=".8933"/><qTerm  idx="-1"  idxOne="5"  idxTwo="20"  coef="-.9077"/><qTerm  idx="-1"  idxOne="5"  idxTwo="24"  coef=".4744"/><qTerm  idx="-1"  idxOne="5"  idxTwo="27"  coef="1.7478"/><qTerm  idx="-1"  idxOne="6"  idxTwo="6"  coef="1.4011"/><qTerm  idx="-1"  idxOne="6"  idxTwo="7"  coef="1.8905"/><qTerm  idx="-1"  idxOne="6"  idxTwo="10"  coef="-1.4674"/><qTerm  idx="-1"  idxOne="6"  idxTwo="12"  coef="1.8742"/><qTerm  idx="-1"  idxOne="6"  idxTwo="14"  coef=".4601"/><qTerm  idx="-1"  idxOne="6"  idxTwo="17"  coef="1.963"/><qTerm  idx="-1"  idxOne="6"  idxTwo="25"  coef=".9776"/><qTerm  idx="-1"  idxOne="7"  idxTwo="13"  coef="-1.1665"/><qTerm  idx="-1"  idxOne="7"  idxTwo="17"  coef="1.3776"/><qTerm  idx="-1"  idxOne="7"  idxTwo="18"  coef="-1.3584"/><qTerm  idx="-1"  idxOne="7"  idxTwo="19"  coef=".4287"/><qTerm  idx="-1"  idxOne="7"  idxTwo="20"  coef="1.1918"/><qTerm  idx="-1"  idxOne="7"  idxTwo="24"  coef=".1506"/><qTerm  idx="-1"  idxOne="7"  idxTwo="27"  coef="-.1756"/><qTerm  idx="-1"  idxOne="8"  idxTwo="10"  coef=".2473"/><qTerm  idx="-1"  idxOne="8"  idxTwo="13"  coef="4.37e-2"/><qTerm  idx="-1"  idxOne="8"  idxTwo="16"  coef=".2141"/><qTerm  idx="-1"  idxOne="9"  idxTwo="11"  coef=".3039"/><qTerm  idx="-1"  idxOne="9"  idxTwo="13"  coef="-7.63e-2"/><qTerm  idx="-1"  idxOne="9"  idxTwo="14"  coef="-.9245"/><qTerm  idx="-1"  idxOne="9"  idxTwo="17"  coef="-.8204"/><qTerm  idx="-1"  idxOne="9"  idxTwo="18"  coef=".6547"/><qTerm  idx="-1"  idxOne="9"  idxTwo="19"  coef="1.4228"/><qTerm  idx="-1"  idxOne="9"  idxTwo="20"  coef=".9408"/><qTerm  idx="-1"  idxOne="9"  idxTwo="21"  coef="-1.8998"/><qTerm  idx="-1"  idxOne="9"  idxTwo="22"  coef="-1.014"/><qTerm  idx="-1"  idxOne="10"  idxTwo="11"  coef=".9817"/><qTerm  idx="-1"  idxOne="10"  idxTwo="19"  coef=".4742"/><qTerm  idx="-1"  idxOne="10"  idxTwo="21"  coef="-.1147"/><qTerm  idx="-1"  idxOne="10"  idxTwo="27"  coef="-.6437"/><qTerm  idx="-1"  idxOne="11"  idxTwo="16"  coef="-1.9394"/><qTerm  idx="-1"  idxOne="11"  idxTwo="22"  coef="-7.75e-2"/><qTerm  idx="-1"  idxOne="11"  idxTwo="26"  coef="-.2181"/><qTerm  idx="-1"  idxOne="12"  idxTwo="16"  coef="1.9917"/><qTerm  idx="-1"  idxOne="12"  idxTwo="18"  coef="1.6061"/><qTerm  idx="-1"  idxOne="12"  idxTwo="20"  coef="-1.4378"/><qTerm  idx="-1"  idxOne="12"  idxTwo="21"  coef="1.7145"/><qTerm  idx="-1"  idxOne="12"  idxTwo="25"  coef=".5505"/><qTerm  idx="-1"  idxOne="12"  idxTwo="28"  coef=".7704"/><qTerm  idx="-1"  idxOne="13"  idxTwo="13"  coef="-.419"/><qTerm  idx="-1"  idxOne="13"  idxTwo="16"  coef="-1.0033"/><qTerm  idx="-1"  idxOne="13"  idxTwo="17"  coef=".5928"/><qTerm  idx="-1"  idxOne="13"  idxTwo="22"  coef=".8098"/><qTerm  idx="-1"  idxOne="14"  idxTwo="18"  coef="-.8606"/><qTerm  idx="-1"  idxOne="14"  idxTwo="21"  coef="-.5008"/><qTerm  idx="-1"  idxOne="15"  idxTwo="15"  coef="-.2459"/><qTerm  idx="-1"  idxOne="15"  idxTwo="19"  coef="1.603"/><qTerm  idx="-1"  idxOne="15"  idxTwo="24"  coef=".6619"/><qTerm  idx="-1"  idxOne="15"  idxTwo="26"  coef="-.7848"/><qTerm  idx="-1"  idxOne="15"  idxTwo="28"  coef=".2009"/><qTerm  idx="-1"  idxOne="16"  idxTwo="19"  coef=".216"/><qTerm  idx="-1"  idxOne="16"  idxTwo="26"  coef="1.8387"/><qTerm  idx="-1"  idxOne="16"  idxTwo="27"  coef="-.1379"/><qTerm  idx="-1"  idxOne="16"  idxTwo="28"  coef="-1.4819"/><qTerm  idx="-1"  idxOne="16"  idxTwo="29"  coef="1.8637"/><qTerm  idx="-1"  idxOne="17"  idxTwo="20"  coef="-.1725"/><qTerm  idx="-1"  idxOne="17"  idxTwo="22"  coef="1.1012"/><qTerm  idx="-1"  idxOne="17"  idxTwo="23"  coef="1.305"/><qTerm  idx="-1"  idxOne="18"  idxTwo="21"  coef="1.5893"/><qTerm  idx="-1"  idxOne="18"  idxTwo="23"  coef="1.0944"/><qTerm  idx="-1"  idxOne="18"  idxTwo="24"  coef="1.7884"/><qTerm  idx="-1"  idxOne="18"  idxTwo="27"  coef="-.8176"/><qTerm  idx="-1"  idxOne="18"  idxTwo="28"  coef="1.961"/><qTerm  idx="-1"  idxOne="19"  idxTwo="19"  coef="1.47e-2"/><qTerm  idx="-1"  idxOne="19"  idxTwo="22"  coef="1.4843"/><qTerm  idx="-1"  idxOne="20"  idxTwo="24"  coef=".3278"/><qTerm  idx="-1"  idxOne="20"  idxTwo="27"  coef="1.2552"/><qTerm  idx="-1"  idxOne="21"  idxTwo="21"  coef="-.4856"/><qTerm  idx="-1"  idxOne="22"  idxTwo="25"  coef="-1.6031"/><qTerm  idx="-1"  idxOne="22"  idxTwo="26"  coef=".5195"/><qTerm  idx="-1"  idxOne="22"  idxTwo="27"  coef="-1.78"/><qTerm  idx="-1"  idxOne="22"  idxTwo="29"  coef="1.815"/><qTerm  idx="-1"  idxOne="23"  idxTwo="25"  coef=".8361"/><qTerm  idx="-1"  idxOne="23"  idxTwo="26"  coef=".7795"/><qTerm  idx="-1"  idxOne="24"  idxTwo="24"  coef=".9861"/><qTerm  idx="-1"  idxOne="24"  idxTwo="28"  coef="-.7663"/><qTerm  idx="-1"  idxOne="25"  idxTwo="27"  coef=".8005"/><qTerm  idx="-1"  idxOne="26"  idxTwo="28"  coef=".6317"/><qTerm  idx="-1"  idxOne="27"  idxTwo="29"  coef="-1.1007"/><qTerm  idx="-1"  idxOne="28"  idxTwo="29"  coef="-.9728"/></quadraticCoefficients></instanceData></osil>
